<number of tasks>
20

<cycle time>
1000

<order strength>
0,5


<task times>
1 128
2 339
3 428
4 484
5 290
6 226
7 233
8 83
9 290
10 341
11 558
12 255
13 561
14 118
15 74
16 46
17 127
18 509
19 143
20 252

<precedence relations>
1,10
2,10
3,10
4,5
4,6
4,7
4,8
4,9
5,10
6,10
6,11
7,18
7,20
9,17
10,12
10,13
10,14
10,15
10,16
12,17
13,17
14,17
14,18
16,18
16,19
17,19
17,20

<end>
